(set-logic QF_S)
(declare-fun var0 () String)
(declare-fun var1 () String)
(declare-fun var2 () String)
(declare-fun var3 () String)
(declare-fun var4 () Int)
(declare-fun var5 () Int)
(declare-fun var6 () Int)
(declare-fun var7 () Int)
(assert (<= (str.to.int var0) (str.to.int var1)))
(assert (str.prefixof var2 var3))
(assert (str.suffixof (str.at var1 var4) (str.substr "2{l%cn" var5 var6)))
(assert (<= 163 var7))
(check-sat)